NAME: I1972-n44-k4
COMMENT : (Fake et al, No of trucks: 4, Optimal value: )
TYPE : CVRP
DIMENSION : 44
EDGE_WEIGHT_TYPE : EUC_2D
CAPACITY : 17
NODE_COORD_SECTION
1 549 198
2 120 318
3 763 332
4 379 544
5 354 776
6 567 242
7 259 248
8 485 593
9 674 574
10 869 274
11 591 9
12 799 150
13 773 946
14 719 162
15 274 896
16 298 178
17 23 647
18 575 337
19 443 982
20 617 62
21 82 521
22 165 907
23 408 660
24 451 270
25 478 306
26 454 541
27 936 540
28 200 427
29 248 797
30 529 805
31 936 568
32 20 845
33 256 487
34 382 614
35 765 984
36 519 741
37 390 873
38 529 190
39 17 583
40 583 558
41 763 870
42 470 31
43 185 166
44 466 798
DEMAND_SECTION
1 0
2 1
3 1
4 2
5 1
6 2
7 1
8 2
9 2
10 1
11 1
12 2
13 2
14 2
15 1
16 1
17 1
18 1
19 1
20 1
21 1
22 2
23 2
24 2
25 1
26 1
27 1
28 1
29 1
30 2
31 2
32 2
33 2
34 2
35 1
36 1
37 1
38 1
39 2
40 2
41 2
42 1
43 1
44 1
DEPOT_SECTION
 1
 -1
 EOF 